(declare-fun temp186_1 () (_ BitVec 64))
(declare-fun temp186_2 () (_ BitVec 64))
(declare-fun temp186_3 () (_ BitVec 64))
(declare-fun ARGNAME_y_NAMEEND_DIMSIZE () (Array (_ BitVec 64) (_ BitVec 64)))
(declare-fun temp186_4 () (_ BitVec 64))
(declare-fun temp186_5 () (_ BitVec 64))
(declare-fun temp186_6 () (_ BitVec 64))
(declare-fun temp186_7 () (_ BitVec 64))
(declare-fun temp186_8 () (_ BitVec 64))
(declare-fun temp186_9 () (_ BitVec 64))
(declare-fun temp186_10 () (_ BitVec 64))
(declare-fun temp186_11 () (_ BitVec 64))
(declare-fun temp186_12 () (_ BitVec 64))
(declare-fun temp186_13 () (_ BitVec 64))
(declare-fun temp186_14 () (_ BitVec 64))
(declare-fun temp186_15 () (_ BitVec 64))
(declare-fun temp186_16 () (_ BitVec 64))
(declare-fun temp186_17 () (_ BitVec 64))
(declare-fun temp186_18 () (_ BitVec 64))
(declare-fun temp186_19 () (_ BitVec 64))
(declare-fun temp186_20 () (_ BitVec 64))
(declare-fun var131764 () (_ BitVec 64))
(declare-fun ARGNAME_y_NAMEEND_DIM () (_ BitVec 64))
(declare-fun temp186_21 () (_ BitVec 64))
(declare-fun var131768 () (_ BitVec 64))
(declare-fun temp186_22 () (_ BitVec 64))
(declare-fun temp186_23 () (_ BitVec 64))
(declare-fun var131771 () (_ BitVec 64))
(declare-fun k!0 () (_ BitVec 64))
(declare-fun k!1 () Bool)
(declare-fun temp186_24 () (_ BitVec 64))
(declare-fun ARGNAME_x_NAMEEND_DIM () (_ BitVec 64))
(declare-fun var131812 () (_ BitVec 64))
(declare-fun temp186_25 () (_ BitVec 64))
(declare-fun temp186_26 () (_ BitVec 64))
(declare-fun var131298 () (_ BitVec 64))
(declare-fun temp186_27 () (_ BitVec 64))
(declare-fun temp186_28 () (_ BitVec 64))
(declare-fun ARGNAME_x_NAMEEND_DIMSIZE () (Array (_ BitVec 64) (_ BitVec 64)))
(declare-fun temp186_29 () (_ BitVec 64))
(declare-fun temp186_30 () (_ BitVec 64))
(declare-fun temp186_31 () (_ BitVec 64))
(declare-fun temp186_32 () (_ BitVec 64))
(declare-fun temp186_33 () (_ BitVec 64))
(declare-fun temp186_34 () (_ BitVec 64))
(declare-fun temp186_35 () (_ BitVec 64))
(declare-fun temp186_36 () (_ BitVec 64))
(declare-fun temp186_37 () (_ BitVec 64))
(declare-fun temp186_38 () (_ BitVec 64))
(declare-fun temp186_39 () (_ BitVec 64))
(declare-fun temp186_40 () (_ BitVec 64))
(declare-fun temp186_41 () (_ BitVec 64))
(declare-fun temp186_42 () (_ BitVec 64))
(declare-fun temp186_43 () (_ BitVec 64))
(declare-fun temp186_44 () (_ BitVec 64))
(declare-fun temp186_45 () (_ BitVec 64))
(declare-fun temp186_46 () (_ BitVec 64))
(declare-fun temp186_47 () (_ BitVec 64))
(declare-fun var131815 () (_ BitVec 64))
(declare-fun temp186_48 () (_ BitVec 64))
(declare-fun temp186_49 () (_ BitVec 64))
(declare-fun temp186_50 () (_ BitVec 64))
(declare-fun var131816 () (_ BitVec 64))
(declare-fun var131817 () (_ BitVec 64))
(declare-fun temp186_51 () (_ BitVec 64))
(declare-fun temp186_53 () (_ BitVec 64))
(declare-fun temp186_52 () (_ BitVec 64))
(declare-fun temp186_54 () (_ BitVec 64))
(declare-fun var592370 () (_ BitVec 64))
(declare-fun var592372 () (_ BitVec 64))
(declare-fun var658108 () (_ BitVec 64))
(declare-fun temp186_55 () (_ BitVec 64))
(declare-fun temp186_56 () (_ BitVec 64))
(declare-fun temp186_57 () (_ BitVec 64))
(declare-fun temp186_58 () (_ BitVec 64))
(declare-fun var131845 () (_ BitVec 64))
(declare-fun temp186_60 () (_ BitVec 64))
(declare-fun temp186_59 () (_ BitVec 64))
(declare-fun temp186_62 () (_ BitVec 64))
(declare-fun temp186_61 () (_ BitVec 64))
(declare-fun temp186_63 () (_ BitVec 64))
(declare-fun var1705254 () (_ BitVec 64))
(declare-fun temp186_64 () (_ BitVec 64))
(declare-fun var1705288 () (_ BitVec 64))
(declare-fun temp186_65 () (_ BitVec 64))
(declare-fun temp186_67 () (_ BitVec 64))
(declare-fun temp186_66 () (_ BitVec 64))
(declare-fun temp186_68 () (_ BitVec 64))
(declare-fun var2098470 () (_ BitVec 64))
(declare-fun temp186_69 () (_ BitVec 64))
(declare-fun var2098504 () (_ BitVec 64))
(declare-fun temp186_70 () (_ BitVec 64))
(assert (= temp186_1 #x0000000000000000))
(assert (= temp186_2 temp186_1))
(assert (= temp186_3 (select ARGNAME_y_NAMEEND_DIMSIZE temp186_2)))
(assert (= temp186_4 #x0000000000000001))
(assert (= temp186_5 temp186_4))
(assert (= temp186_6 (select ARGNAME_y_NAMEEND_DIMSIZE temp186_5)))
(assert (= temp186_7 #x0000000000000002))
(assert (= temp186_8 temp186_7))
(assert (= temp186_9 (select ARGNAME_y_NAMEEND_DIMSIZE temp186_8)))
(assert (= temp186_10 #x0000000000000003))
(assert (= temp186_11 temp186_10))
(assert (= temp186_12 (select ARGNAME_y_NAMEEND_DIMSIZE temp186_11)))
(assert (= temp186_13 #x0000000000000004))
(assert (= temp186_14 temp186_13))
(assert (= temp186_15 (select ARGNAME_y_NAMEEND_DIMSIZE temp186_14)))
(assert (= temp186_16 #x0000000000000005))
(assert (= temp186_17 temp186_16))
(assert (= temp186_18 (select ARGNAME_y_NAMEEND_DIMSIZE temp186_17)))
(assert (= temp186_19 #x0000000000000000))
(assert (= temp186_20
   (ite (bvslt var131764 temp186_19)
        (bvadd ARGNAME_y_NAMEEND_DIM var131764)
        var131764)))
(assert (= temp186_21 (select ARGNAME_y_NAMEEND_DIMSIZE temp186_20)))
(assert (= var131768 temp186_21))
(assert (bvslt (ite (bvslt var131764 temp186_19)
            (bvadd ARGNAME_y_NAMEEND_DIM var131764)
            var131764)
       ARGNAME_y_NAMEEND_DIM))
(assert (= temp186_22 #x0000000000000000))
(assert (= var131771
   (ite (= var131768 temp186_22) #x0000000000000001 #x0000000000000000)))
(assert (= temp186_23 #x0000000000000000))
(assert (= var131771 temp186_23))
(assert (= temp186_24 #x0000000000000001))
(assert (= var131812
   (ite (= ARGNAME_x_NAMEEND_DIM temp186_24)
        #x0000000000000001
        #x0000000000000000)))
(assert (= temp186_25 #x0000000000000001))
(assert (= var131812 temp186_25))
(assert (= temp186_26 #x0000000000000000))
(assert (= var131298 temp186_26))
(assert (= temp186_27 #x0000000000000000))
(assert (= temp186_28 temp186_27))
(assert (= temp186_29 (select ARGNAME_x_NAMEEND_DIMSIZE temp186_28)))
(assert (= temp186_30 #x0000000000000001))
(assert (= temp186_31 temp186_30))
(assert (= temp186_32 (select ARGNAME_x_NAMEEND_DIMSIZE temp186_31)))
(assert (= temp186_33 #x0000000000000002))
(assert (= temp186_34 temp186_33))
(assert (= temp186_35 (select ARGNAME_x_NAMEEND_DIMSIZE temp186_34)))
(assert (= temp186_36 #x0000000000000003))
(assert (= temp186_37 temp186_36))
(assert (= temp186_38 (select ARGNAME_x_NAMEEND_DIMSIZE temp186_37)))
(assert (= temp186_39 #x0000000000000004))
(assert (= temp186_40 temp186_39))
(assert (= temp186_41 (select ARGNAME_x_NAMEEND_DIMSIZE temp186_40)))
(assert (= temp186_42 #x0000000000000005))
(assert (= temp186_43 temp186_42))
(assert (= temp186_44 (select ARGNAME_x_NAMEEND_DIMSIZE temp186_43)))
(assert (= temp186_45 #x0000000000000000))
(assert (= temp186_46
   (ite (bvslt var131298 temp186_45)
        (bvadd ARGNAME_x_NAMEEND_DIM var131298)
        var131298)))
(assert (= temp186_47 (select ARGNAME_x_NAMEEND_DIMSIZE temp186_46)))
(assert (= var131815 temp186_47))
(assert (bvslt (ite (bvslt var131298 temp186_45)
            (bvadd ARGNAME_x_NAMEEND_DIM var131298)
            var131298)
       ARGNAME_x_NAMEEND_DIM))
(assert (= temp186_48 #x0000000000000000))
(assert (= temp186_49
   (ite (bvslt var131764 temp186_48)
        (bvadd ARGNAME_y_NAMEEND_DIM var131764)
        var131764)))
(assert (= temp186_50 (select ARGNAME_y_NAMEEND_DIMSIZE temp186_49)))
(assert (= var131816 temp186_50))
(assert (bvslt (ite (bvslt var131764 temp186_48)
            (bvadd ARGNAME_y_NAMEEND_DIM var131764)
            var131764)
       ARGNAME_y_NAMEEND_DIM))
(assert (= var131817
   (ite (= var131815 var131816) #x0000000000000001 #x0000000000000000)))
(assert (= temp186_51 #x0000000000000001))
(assert (= var131817 temp186_51))
(assert (= temp186_53 #x0000000000000001))
(assert (= temp186_52 temp186_53))
(assert (= temp186_54 #x0000000000000005))
(assert (= var592370 temp186_54))
(assert (= var592372 var592370))
(assert (= var658108 var592372))
(assert (= temp186_55 #x0000000000000000))
(assert (= var131298 temp186_55))
(assert (= temp186_56 #x0000000000000000))
(assert (= temp186_57
   (ite (bvslt var131298 temp186_56)
        (bvadd ARGNAME_x_NAMEEND_DIM var131298)
        var131298)))
(assert (= temp186_58 (select ARGNAME_x_NAMEEND_DIMSIZE temp186_57)))
(assert (= var131845 temp186_58))
(assert (bvslt (ite (bvslt var131298 temp186_56)
            (bvadd ARGNAME_x_NAMEEND_DIM var131298)
            var131298)
       ARGNAME_x_NAMEEND_DIM))
(assert (= temp186_60 #x0000000000000000))
(assert (= temp186_59 temp186_60))
(assert (= temp186_62 #xffffffffffffffff))
(assert (= temp186_61 temp186_62))
(assert (= temp186_63 #x0000000000000001))
(assert (= var1705254 temp186_63))
(assert (= temp186_64 #x0000000000000000))
(assert (= var1705288 temp186_64))
(assert (= temp186_65 #x0000000000000000))
(assert (= var1705288 temp186_65))
(assert (= temp186_67 #x0000000000000001))
(assert (= temp186_66 temp186_67))
(assert (= temp186_68 #x0000000000000001))
(assert (= var2098470 temp186_68))
(assert (= temp186_69 #x0000000000000000))
(assert (= var2098504 temp186_69))
(assert (= temp186_70 #x0000000000000000))
(assert (= var2098504 temp186_70))
(model-add temp186_1 () (_ BitVec 64) #x0000000000000000)
(model-add temp186_2 () (_ BitVec 64) #x0000000000000000)
(model-add temp186_3
           ()
           (_ BitVec 64)
           (select ARGNAME_y_NAMEEND_DIMSIZE #x0000000000000000))
(model-add temp186_4 () (_ BitVec 64) #x0000000000000001)
(model-add temp186_5 () (_ BitVec 64) #x0000000000000001)
(model-add temp186_6
           ()
           (_ BitVec 64)
           (select ARGNAME_y_NAMEEND_DIMSIZE #x0000000000000001))
(model-add temp186_7 () (_ BitVec 64) #x0000000000000002)
(model-add temp186_8 () (_ BitVec 64) #x0000000000000002)
(model-add temp186_9
           ()
           (_ BitVec 64)
           (select ARGNAME_y_NAMEEND_DIMSIZE #x0000000000000002))
(model-add temp186_10 () (_ BitVec 64) #x0000000000000003)
(model-add temp186_11 () (_ BitVec 64) #x0000000000000003)
(model-add temp186_12
           ()
           (_ BitVec 64)
           (select ARGNAME_y_NAMEEND_DIMSIZE #x0000000000000003))
(model-add temp186_13 () (_ BitVec 64) #x0000000000000004)
(model-add temp186_14 () (_ BitVec 64) #x0000000000000004)
(model-add temp186_15
           ()
           (_ BitVec 64)
           (select ARGNAME_y_NAMEEND_DIMSIZE #x0000000000000004))
(model-add temp186_16 () (_ BitVec 64) #x0000000000000005)
(model-add temp186_17 () (_ BitVec 64) #x0000000000000005)
(model-add temp186_18
           ()
           (_ BitVec 64)
           (select ARGNAME_y_NAMEEND_DIMSIZE #x0000000000000005))
(model-add temp186_19 () (_ BitVec 64) #x0000000000000000)
(model-add temp186_20
           ()
           (_ BitVec 64)
           (ite (bvsle #x0000000000000000 var131764)
                var131764
                (bvadd ARGNAME_y_NAMEEND_DIM var131764)))
(model-add temp186_21
           ()
           (_ BitVec 64)
           (select ARGNAME_y_NAMEEND_DIMSIZE
                   (ite (bvsle #x0000000000000000 var131764)
                        var131764
                        (bvadd ARGNAME_y_NAMEEND_DIM var131764))))
(model-add var131768
           ()
           (_ BitVec 64)
           (select ARGNAME_y_NAMEEND_DIMSIZE
                   (ite (bvsle #x0000000000000000 var131764)
                        var131764
                        (bvadd ARGNAME_y_NAMEEND_DIM var131764))))
(model-add temp186_22 () (_ BitVec 64) #x0000000000000000)
(model-add temp186_23 () (_ BitVec 64) #x0000000000000000)
(model-add var131771 () (_ BitVec 64) #x0000000000000000)
(model-del k!0)
(model-add ARGNAME_y_NAMEEND_DIMSIZE
           ()
           (Array (_ BitVec 64) (_ BitVec 64))
           ((as const (Array (_ BitVec 64) (_ BitVec 64))) k!0))
(model-del k!1)
(model-add k!0
           ()
           (_ BitVec 64)
           (ite k!1 #x0000000000000000 (bvnot #x0000000000000000)))






